p min 109 284
n 1 2
n 73 -1
n 97 -1
n 98 -1
n 99 -1
n 108 1
n 109 1
a 1 33 0 1 0
a 1 34 0 1 0
a 2 3 0 4 0
a 2 35 0 4 79800
a 2 57 0 4 -100
a 3 4 0 4 0
a 3 58 0 4 -100
a 3 103 0 1 0
a 4 5 0 4 0
a 4 59 0 4 -100
a 4 103 0 1 39199
a 5 6 0 4 0
a 5 60 0 4 -100
a 5 103 0 1 100664
a 6 7 0 4 0
a 6 61 0 4 -100
a 6 103 0 1 138312
a 7 8 0 4 0
a 7 36 0 4 79600
a 7 62 0 4 -100
a 7 101 0 1 0
a 7 103 0 1 197343
a 8 9 0 4 0
a 8 37 0 4 79561
a 8 63 0 4 -100
a 8 101 0 1 39199
a 9 10 0 4 0
a 9 38 0 4 79521
a 9 64 0 4 -100
a 9 101 0 1 100664
a 9 102 0 1 0
a 10 11 0 4 0
a 10 39 0 4 79481
a 10 65 0 4 -100
a 10 101 0 1 138312
a 10 102 0 1 39198
a 11 12 0 4 0
a 11 40 0 4 79441
a 11 66 0 4 -100
a 11 101 0 1 197343
a 11 102 0 1 100663
a 12 13 0 4 0
a 12 41 0 4 79402
a 12 67 0 4 -100
a 12 101 0 1 233500
a 12 102 0 1 138311
a 13 14 0 4 0
a 13 42 0 4 79362
a 13 68 0 4 -100
a 13 102 0 1 197342
a 14 15 0 4 0
a 14 69 0 4 -100
a 14 102 0 1 233499
a 15 16 0 4 0
a 15 43 0 4 78769
a 15 74 0 4 -100
a 16 17 0 4 0
a 16 44 0 4 78690
a 16 75 0 4 -100
a 17 18 0 4 0
a 17 45 0 4 78572
a 17 77 0 4 -100
a 17 104 0 1 0
a 18 19 0 4 0
a 18 46 0 4 78533
a 18 78 0 4 -100
a 18 104 0 1 39199
a 19 20 0 4 0
a 19 47 0 4 78493
a 19 79 0 4 -100
a 19 104 0 1 100664
a 20 21 0 4 0
a 20 48 0 4 78454
a 20 80 0 4 -100
a 20 104 0 1 138312
a 21 22 0 4 0
a 21 49 0 4 78415
a 21 81 0 4 -100
a 21 104 0 1 197343
a 22 23 0 4 0
a 22 50 0 4 78376
a 22 82 0 4 -100
a 22 104 0 1 233500
a 23 24 0 4 0
a 23 83 0 4 -100
a 23 104 0 1 290194
a 24 25 0 4 0
a 24 84 0 4 -100
a 24 104 0 1 324919
a 25 26 0 4 0
a 25 85 0 4 -100
a 25 104 0 1 379368
a 26 27 0 4 0
a 26 87 0 4 -100
a 26 106 0 1 0
a 27 28 0 4 0
a 27 88 0 4 -100
a 27 106 0 1 39199
a 28 29 0 4 0
a 28 89 0 4 -100
a 28 106 0 1 100664
a 29 30 0 4 0
a 29 90 0 4 -100
a 29 106 0 1 138312
a 30 31 0 4 0
a 30 91 0 4 -100
a 30 106 0 1 197343
a 31 32 0 4 0
a 31 51 0 4 77557
a 31 92 0 4 -100
a 31 106 0 1 233500
a 32 99 0 4 -100
a 33 6 0 4 79800
a 33 34 0 4 0
a 33 57 0 4 -100
a 34 7 0 4 79760
a 34 35 0 4 0
a 34 58 0 4 -100
a 35 10 0 4 79640
a 35 36 0 4 0
a 35 61 0 4 -100
a 36 37 0 4 0
a 36 66 0 4 -100
a 36 100 0 1 0
a 37 38 0 4 0
a 37 67 0 4 -100
a 37 100 0 1 39199
a 38 39 0 4 0
a 38 68 0 4 -100
a 38 100 0 1 100664
a 39 40 0 4 0
a 39 69 0 4 -100
a 39 100 0 1 138312
a 40 41 0 4 0
a 40 70 0 4 -100
a 40 100 0 1 197343
a 41 42 0 4 0
a 41 71 0 4 -100
a 41 100 0 1 233500
a 42 15 0 4 79085
a 42 43 0 4 0
a 42 72 0 4 -100
a 42 100 0 1 290194
a 43 20 0 4 78611
a 43 44 0 4 0
a 43 76 0 4 -100
a 44 22 0 4 78533
a 44 45 0 4 0
a 44 78 0 4 -100
a 45 25 0 4 78415
a 45 46 0 4 0
a 45 81 0 4 -100
a 45 105 0 1 0
a 46 47 0 4 0
a 46 82 0 4 -100
a 46 105 0 1 39199
a 47 26 0 4 78337
a 47 48 0 4 0
a 47 83 0 4 -100
a 47 105 0 1 100664
a 48 27 0 4 78297
a 48 49 0 4 0
a 48 84 0 4 -100
a 48 105 0 1 138312
a 49 28 0 4 78258
a 49 50 0 4 0
a 49 85 0 4 -100
a 49 105 0 1 197343
a 50 29 0 4 78219
a 50 51 0 4 0
a 50 86 0 4 -100
a 50 105 0 1 233500
a 51 52 0 4 0
a 51 93 0 4 -100
a 51 107 0 1 0
a 52 53 0 4 0
a 52 94 0 4 -100
a 52 107 0 1 39199
a 53 54 0 4 0
a 53 95 0 4 -100
a 53 107 0 1 100664
a 54 32 0 4 77247
a 54 55 0 4 0
a 54 96 0 4 -100
a 54 107 0 1 138312
a 55 99 0 4 -100
a 56 57 0 4 -100
a 57 56 0 4 9995
a 57 58 0 4 -100
a 58 57 0 4 9990
a 58 59 0 4 -100
a 59 58 0 4 9985
a 59 60 0 4 -100
a 60 59 0 4 9980
a 60 61 0 4 -100
a 61 60 0 4 9975
a 61 62 0 4 -100
a 62 61 0 4 9970
a 62 63 0 4 -100
a 63 62 0 4 9965
a 63 64 0 4 -100
a 64 63 0 4 9960
a 64 65 0 4 -100
a 65 64 0 4 9955
a 65 66 0 4 -100
a 66 65 0 4 9950
a 66 67 0 4 -100
a 67 66 0 4 9945
a 67 68 0 4 -100
a 68 67 0 4 9940
a 68 69 0 4 -100
a 69 68 0 4 9935
a 69 70 0 4 -100
a 70 69 0 4 9930
a 70 71 0 4 -100
a 71 70 0 4 9925
a 71 72 0 4 -100
a 72 71 0 4 9920
a 72 73 0 4 -100
a 73 72 0 4 39601
a 73 74 0 4 -100
a 74 73 0 4 29656
a 74 75 0 4 -100
a 75 74 0 4 59136
a 75 76 0 4 -100
a 76 75 0 4 19692
a 76 77 0 4 -100
a 77 76 0 4 9841
a 77 78 0 4 -100
a 78 77 0 4 9836
a 78 79 0 4 -100
a 79 78 0 4 9831
a 79 80 0 4 -100
a 80 79 0 4 9826
a 80 81 0 4 -100
a 81 80 0 4 9821
a 81 82 0 4 -100
a 82 81 0 4 9816
a 82 83 0 4 -100
a 83 82 0 4 9811
a 83 84 0 4 -100
a 84 83 0 4 9806
a 84 85 0 4 -100
a 85 84 0 4 9801
a 85 86 0 4 -100
a 86 85 0 4 9797
a 86 87 0 4 -100
a 87 86 0 4 9792
a 87 88 0 4 -100
a 88 87 0 4 9787
a 88 89 0 4 -100
a 89 88 0 4 9782
a 89 90 0 4 -100
a 90 89 0 4 9777
a 90 91 0 4 -100
a 91 90 0 4 9772
a 91 92 0 4 -100
a 92 91 0 4 9767
a 92 93 0 4 -100
a 93 92 0 4 145420
a 93 94 0 4 -100
a 94 93 0 4 9689
a 94 95 0 4 -100
a 95 94 0 4 9684
a 95 96 0 4 -100
a 96 95 0 4 9680
a 96 97 0 4 -100
a 97 96 0 4 9675
a 97 98 0 4 -100
a 98 97 0 4 19331
a 98 99 0 4 -100
a 99 98 0 4 19311
a 100 44 0 1 -298424
a 101 16 0 1 -239280
a 102 43 0 1 -238944
a 103 15 0 1 -219683
a 104 52 0 1 -393730
a 105 55 0 1 -255400
a 106 32 0 1 -254588
a 107 55 0 1 -164725
a 108 35 0 1 0
a 108 37 0 1 -12500
a 109 2 0 1 0
a 109 4 0 1 -100
